<instance format="XCSP3" type="CSP">
  <variables>
    <var id="x0"> 0 1 3 12 </var>
    <var id="x1"> 0 1 7 12 17 </var>
    <var id="x2"> 0 2 11 17 </var>
    <var id="x3"> 0..2 7 </var>
    <var id="x4"> 2 3 12 </var>
    <var id="x5"> 0 3 11 12 </var>
    <var id="x6"> 0 2 12 17 </var>
    <var id="x7"> 1 3 11 12 </var>
    <var id="x8"> 3 8 9 14 </var>
    <var id="x9"> 6 15 </var>
    <var id="x10"> 3 4 8 15 </var>
    <var id="x11"> 1 3 4 6 9 14 </var>
    <var id="x12"> 1 9 14 15 </var>
    <var id="x13"> 1 8 14 </var>
    <var id="x14"> 3 6 9 15 </var>
    <var id="x15"> 3 4 6 9 14 </var>
    <var id="x16"> 2 3 </var>
    <var id="x17"> 1 13 16 </var>
    <var id="x18"> 7 12 13 16 </var>
    <var id="x19"> 3 12 13 16 </var>
    <var id="x20"> 1 7 12 16 </var>
    <var id="x21"> 1..3 10 13 </var>
    <var id="x22"> 1 7 10 12 16 </var>
    <var id="x23"> 3 </var>
    <var id="x24"> 3 11 14 17 </var>
    <var id="x25"> 0 11 15 17 </var>
    <var as="x24" id="x26"/>
    <var id="x27"> 7 11 14 </var>
    <var id="x28"> 0 3 11 15 </var>
    <var id="x29"> 4 15 17 </var>
    <var id="x30"> 0 4 17 </var>
    <var id="x31"> 3 11 15 </var>
    <var id="x32"> 5 9 11 17 </var>
    <var id="x33"> 0 15 17 </var>
    <var id="x34"> 4 11 15 </var>
    <var as="x25" id="x35"/>
    <var id="x36"> 1 4 5 9 17 </var>
    <var id="x37"> 1 5 9 15 </var>
    <var id="x38"> 5 </var>
    <var id="x39"> 0 4 17 </var>
    <var id="x40"> 2 3 5 8 14 </var>
    <var id="x41"> 6 12 </var>
    <var id="x42"> 2 3 10 14 </var>
    <var id="x43"> 3 5 6 14 </var>
    <var id="x44"> 8 10 12 14 </var>
    <var id="x45"> 3 6 12 </var>
    <var id="x46"> 3 6 14 </var>
    <var id="x47"> 2 5 10 </var>
    <var id="x48"> 2 3 8 11 17 </var>
    <var id="x49"> 11 13 </var>
    <var id="x50"> 12 17 </var>
    <var id="x51"> 2 8 11 13 15 17 </var>
    <var id="x52"> 2 15 </var>
    <var id="x53"> 2 12 15 </var>
    <var id="x54"> 2 3 8 12 </var>
    <var id="x55"> 2 8 12 13 17 </var>
    <var id="x56"> 0 1 4 12 </var>
    <var id="x57"> 1 4 6 9 13 14 </var>
    <var id="x58"> 0 1 4 12 14 </var>
    <var id="x59"> 0 6 13 </var>
    <var id="x60"> 1 13 14 </var>
    <var id="x61"> 6 12 14 </var>
    <var id="x62"> 0 6 9 12 13 </var>
    <var id="x63"> 1 6 9 12 13 </var>
    <var id="x64"> 1 4 6 13 16 </var>
    <var id="x65"> 4 13 16 </var>
    <var id="x66"> 0 6 13 </var>
    <var id="x67"> 1 10 13 </var>
    <var id="x68"> 0 1 4 6 </var>
    <var id="x69"> 1 10 16 </var>
    <var id="x70"> 6 10 </var>
    <var id="x71"> 0 10 12 16 </var>
    <var id="x72"> 0 12 13 15 16 </var>
    <var id="x73"> 11..13 15 16 </var>
    <var id="x74"> 0 14 15 </var>
    <var id="x75"> 0 11..13 15 </var>
    <var id="x76"> 11 14 </var>
    <var id="x77"> 10 13 15 </var>
    <var id="x78"> 11..13 15 </var>
    <var id="x79"> 0 13 16 17 </var>
    <var id="x80"> 0 14 16 17 </var>
    <var id="x81"> 10 13 14 17 </var>
    <var id="x82"> 5 9 14 17 </var>
    <var id="x83"> 5 10 14 </var>
    <var id="x84"> 9 14 17 </var>
    <var id="x85"> 5 10 13 17 </var>
    <var id="x86"> 0 10 13 17 </var>
    <var id="x87"> 2 3 9 11 17 </var>
    <var id="x88"> 6 9 11 </var>
    <var id="x89"> 2 3 10 11 17 </var>
    <var id="x90"> 2 6 </var>
    <var id="x91"> 2 3 6 10 12 </var>
    <var id="x92"> 3 6 9 11 17 </var>
    <var id="x93"> 2 10 17 </var>
    <var id="x94"> 2 10 12 17 </var>
    <var id="x95"> 1 3 4 </var>
    <var id="x96"> 1 4 6 11 14 </var>
    <var id="x97"> 6 15 17 </var>
    <var id="x98"> 6 11 15 17 </var>
    <var id="x99"> 1 3 4 6 14 17 </var>
    <var id="x100"> 1 14 15 </var>
    <var id="x101"> 1 11 14 </var>
    <var id="x102"> 1 3 6 11 15 </var>
    <var id="x103"> 1 4 12 </var>
    <var id="x104"> 1 4 9 11 13 </var>
    <var id="x105"> 7 12 13 </var>
    <var id="x106"> 1 4 7 </var>
    <var id="x107"> 1 4 9 </var>
    <var id="x108"> 1 7 8 11 12 </var>
    <var id="x109"> 8 12 </var>
    <var id="x110"> 1 4 13 </var>
    <var id="x111"> 3 13 16 </var>
    <var id="x112"> 1 14 16 17 </var>
    <var id="x113"> 1..3 13 14 17 </var>
    <var id="x114"> 1 2 6 14 </var>
    <var id="x115"> 1 2 14 </var>
    <var id="x116"> 3 6 13 </var>
    <var id="x117"> 1 2 13 17 </var>
    <var id="x118"> 2 13 17 </var>
    <var id="x119"> 1 4 12 </var>
    <var id="x120"> 4 12 15 </var>
    <var id="x121"> 1 4 12 14 </var>
    <var id="x122"> 1 4..6 14 </var>
    <var id="x123"> 1 2 5 12 14 15 </var>
    <var id="x124"> 4 6 14 </var>
    <var id="x125"> 1 2 4 5 15 </var>
    <var id="x126"> 1 6 12 15 </var>
    <var id="x127"> 2 8 9 17 </var>
    <var id="x128"> 2 6 15 </var>
    <var id="x129"> 6 9 17 </var>
    <var id="x130"> 8 12 </var>
    <var id="x131"> 6 9 12 15 </var>
    <var id="x132"> 2 8 12 17 </var>
    <var id="x133"> 6 9 12 15 </var>
    <var id="x134"> 4 16 </var>
    <var id="x135"> 4 11 13 14 16 </var>
    <var id="x136"> 4 8 11 13 16 </var>
    <var id="x137"> 4 14 16 </var>
    <var id="x138"> 8 11 13 </var>
    <var id="x139"> 5 14 </var>
    <var id="x140"> 11 13 </var>
  </variables>
  <constraints>
    <group>
      <allDifferent> %... </allDifferent>
      <args> x0 x1 x2 x3 x4 x5 x6 x7 </args>
      <args> x8 x9 x10 x11 x12 x13 x14 x15 </args>
      <args> x16 x17 x18 x19 x20 x21 x22 x23 </args>
      <args> x24 x25 x26 x27 x28 x29 x30 x31 </args>
      <args> x32 x33 x34 x35 x36 x37 x38 x39 </args>
      <args> x40 x41 x42 x43 x44 x45 x46 x47 </args>
      <args> x48 x49 x50 x51 x52 x53 x54 x55 </args>
      <args> x56 x57 x58 x59 x60 x61 x62 x63 </args>
      <args> x64 x65 x66 x67 x68 x69 x70 </args>
      <args> x71 x72 x73 x74 x75 x76 x77 x78 </args>
      <args> x79 x80 x81 x82 x83 x84 x85 x86 </args>
      <args> x87 x88 x89 x90 x91 x92 x93 x94 </args>
      <args> x95 x96 x97 x98 x99 x100 x101 x102 </args>
      <args> x103 x104 x105 x106 x107 x108 x109 x110 </args>
      <args> x111 x112 x113 x114 x115 x116 x117 x118 </args>
      <args> x119 x120 x121 x122 x123 x124 x125 x126 </args>
      <args> x127 x128 x129 x130 x131 x132 x133 </args>
      <args> x134 x135 x136 x137 x138 x139 x140 </args>
      <args> x8 x16 x24 x32 x40 x48 x87 x127 </args>
      <args> x0 x56 x71 x95 x103 x119 x134 </args>
      <args> x17 x49 x57 x64 x88 x96 x104 x135 </args>
      <args> x9 x18 x33 x41 x72 x79 x97 x105 </args>
      <args> x10 x19 x34 x65 x73 x111 x120 x136 </args>
      <args> x1 x20 x50 x58 x80 x112 x121 x137 </args>
      <args> x2 x25 x35 x51 x59 x66 x98 x138 </args>
      <args> x21 x26 x42 x60 x67 x81 x89 x113 </args>
      <args> x3 x52 x68 x74 x90 x106 x114 x128 </args>
      <args> x11 x36 x43 x82 x99 x107 x122 x129 </args>
      <args> x12 x37 x53 x100 x115 x123 x139 </args>
      <args> x13 x22 x27 x44 x69 x101 x108 x130 </args>
      <args> x4 x38 x54 x61 x70 x83 x91 x109 </args>
      <args> x5 x14 x28 x45 x62 x75 x116 x131 </args>
      <args> x15 x23 x46 x76 x84 x92 x124 </args>
      <args> x29 x47 x77 x85 x93 x110 x117 x125 </args>
      <args> x6 x30 x39 x55 x86 x94 x118 x132 </args>
      <args> x7 x31 x63 x78 x102 x126 x133 x140 </args>
    </group>
  </constraints>
</instance>

